proyfinal/src/viki/013/experimentInOfficeAgust.take6.output/a4d03d57-c387-4d23-a98f-6d5ee954d663.als.out
Reading from standard input... Use '--help' for help.
============================[ Problem Statistics ]=============================
|                                                                             |
|  Number of variables:         87638                                         |
|  Number of clauses:          161767                                         |
|  Parse time:                   0.04 s                                       |
|                                                                             |
============================[ Search Statistics ]==============================
| Conflicts |          ORIGINAL         |          LEARNT          | Progress |
|           |    Vars  Clauses Literals |    Limit  Clauses Lit/Cl |          |
===============================================================================
|       100 |   62706   106358   265762 |    38997      100     10 | 28.449 % |
|       250 |   62706   106358   265762 |    42897      250     43 | 28.449 % |
|       475 |   62706   106358   265762 |    47187      475     76 | 28.449 % |
|       812 |   62706   106358   265762 |    51906      812     83 | 28.449 % |
|      1318 |   62686   106274   265569 |    57096     1317     91 | 28.472 % |
|      2077 |   62686   106274   265569 |    62806     2076     98 | 28.472 % |
|      3216 |   62685   106230   265479 |    69087     3212    103 | 28.473 % |
|      4924 |   62685   106230   265479 |    75995     4920     89 | 28.473 % |
|      7486 |   62685   106230   265479 |    83595     7482    104 | 28.473 % |
|     11330 |   62685   106230   265479 |    91955    11326    104 | 28.473 % |
|     17096 |   62639   106087   265167 |   101150    16360    106 | 28.525 % |
===============================================================================
restarts              : 63
conflicts             : 18529          (5713 /sec)
decisions             : 59324          (0.00 % random) (18292 /sec)
propagations          : 26643304       (8215219 /sec)
conflict literals     : 1906011        (56.59 % deleted)
Memory used           : 41.38 MB
CPU time              : 3.24316 s

UNSATISFIABLE
